p cnf 22 9
a 1 0
e 2 3 0
a 4 0
e 5 0
a 6 0
e 7 8 0
a 9 10 11 12 0
e 13 0
a 14 0
e 15 0
a 16 0
e 17 18 19 0
a 20 0
e 21 0
a 22 0
-11 -18 -22 -15 0
17 -4 -21 18 5 0
15 -14 4 1 5 0
21 6 13 17 -4 0
13 -21 12 0
20 8 0
-1 -3 8 -2 0
20 -15 17 5 1 0
-10 -18 5 -7 0
